
  22   10
  10   10   10   10   10   10   10   10   10   10

   0   0   0   0   0   0   0   0   0   0   0   3 2 4 7 
   9  10  10  10  10  10  10  10  10  10  10   1 3 
   5  10  10  10  10  10  10  10  10  10  10   3 15 11 5 
   3  10  10  10  10  10  10  10  10  10  10   2 15 5 
   7  10  10  10  10  10  10  10  10  10  10   1 6 
   5  10  10  10  10  10  10  10  10  10  10   1 8 
   7  10  10  10  10  10  10  10  10  10  10   1 8 
   6  10  10  10  10  10  10  10  10  10  10   1 9 
  10  10  10  10  10  10  10  10  10  10  10   1 10 
   9  10  10  10  10  10  10  10  10  10  10   1 12 
   2  10  10  10  10  10  10  10  10  10  10   1 12 
   9  10  10  10  10  10  10  10  10  10  10   1 13 
   4  10  10  10  10  10  10  10  10  10  10   3 21 17 14 
   1  10  10  10  10  10  10  10  10  10  10   1 16 
   8  10  10  10  10  10  10  10  10  10  10   1 16 
   8  10  10  10  10  10  10  10  10  10  10   1 18 
  10  10  10  10  10  10  10  10  10  10  10   1 18 
   6  10  10  10  10  10  10  10  10  10  10   1 19 
   9  10  10  10  10  10  10  10  10  10  10   1 20 
   6  10  10  10  10  10  10  10  10  10  10   1 22
   2  10  10  10  10  10  10  10  10  10  10   1 22
   0   0   0   0   0   0   0   0   0   0   0   0 
